NAME          
ROWS
 N  OBJ
 L  c1
 L  c2
 L  c3
COLUMNS
    MARKER    'MARKER'                 'INTORG'
    x[1]      c1        478
    x[1]      c2        415
    x[1]      c3        292
    x[1]      OBJ       -480
    x[2]      c1        301
    x[2]      c2        20
    x[2]      c3        292
    x[2]      OBJ       -945
    x[3]      c1        921
    x[3]      c2        261
    x[3]      c3        123
    x[3]      OBJ       -663
    x[4]      c1        464
    x[4]      c2        965
    x[4]      c3        233
    x[4]      OBJ       -477
    x[5]      c1        969
    x[5]      c2        706
    x[5]      c3        978
    x[5]      OBJ       -728
    x[6]      c1        903
    x[6]      c2        4
    x[6]      c3        658
    x[6]      OBJ       -616
    x[7]      c1        762
    x[7]      c2        174
    x[7]      c3        618
    x[7]      OBJ       -414
    x[8]      c1        912
    x[8]      c2        137
    x[8]      c3        1
    x[8]      OBJ       -54
    x[9]      c1        367
    x[9]      c2        203
    x[9]      c3        911
    x[9]      OBJ       -530
    x[10]     c1        721
    x[10]     c2        784
    x[10]     c3        553
    x[10]     OBJ       -774
    x[11]     c1        937
    x[11]     c2        26
    x[11]     c3        435
    x[11]     OBJ       -496
    x[12]     c1        70
    x[12]     c2        713
    x[12]     c3        866
    x[12]     OBJ       -305
    x[13]     c1        967
    x[13]     c2        200
    x[13]     c3        25
    x[13]     OBJ       -144
    x[14]     c1        957
    x[14]     c2        702
    x[14]     c3        800
    x[14]     OBJ       -322
    x[15]     c1        274
    x[15]     c2        19
    x[15]     c3        591
    x[15]     OBJ       -115
    x[16]     c1        435
    x[16]     c2        376
    x[16]     c3        876
    x[16]     OBJ       -670
    x[17]     c1        217
    x[17]     c2        738
    x[17]     c3        525
    x[17]     OBJ       -285
    x[18]     c1        845
    x[18]     c2        545
    x[18]     c3        367
    x[18]     OBJ       -30
    x[19]     c1        115
    x[19]     c2        759
    x[19]     c3        41
    x[19]     OBJ       -204
    x[20]     c1        425
    x[20]     c2        91
    x[20]     c3        92
    x[20]     OBJ       -612
    x[21]     c1        655
    x[21]     c2        575
    x[21]     c3        139
    x[21]     OBJ       -144
    x[22]     c1        700
    x[22]     c2        785
    x[22]     c3        299
    x[22]     OBJ       -3
    x[23]     c1        506
    x[23]     c2        720
    x[23]     c3        63
    x[23]     OBJ       -886
    x[24]     c1        800
    x[24]     c2        605
    x[24]     c3        109
    x[24]     OBJ       -393
    x[25]     c1        524
    x[25]     c2        758
    x[25]     c3        142
    x[25]     OBJ       -59
    x[26]     c1        228
    x[26]     c2        32
    x[26]     c3        806
    x[26]     OBJ       -595
    x[27]     c1        854
    x[27]     c2        399
    x[27]     c3        231
    x[27]     OBJ       -857
    x[28]     c1        519
    x[28]     c2        360
    x[28]     c3        987
    x[28]     OBJ       -23
    x[29]     c1        747
    x[29]     c2        188
    x[29]     c3        782
    x[29]     OBJ       -37
    x[30]     c1        34
    x[30]     c2        284
    x[30]     c3        924
    x[30]     OBJ       -637
    x[31]     c1        682
    x[31]     c2        682
    x[31]     c3        729
    x[31]     OBJ       -836
    x[32]     c1        535
    x[32]     c2        776
    x[32]     c3        579
    x[32]     OBJ       -725
    x[33]     c1        702
    x[33]     c2        720
    x[33]     c3        166
    x[33]     OBJ       -90
    x[34]     c1        878
    x[34]     c2        100
    x[34]     c3        14
    x[34]     OBJ       -950
    x[35]     c1        796
    x[35]     c2        44
    x[35]     c3        216
    x[35]     OBJ       -403
    x[36]     c1        181
    x[36]     c2        86
    x[36]     c3        24
    x[36]     OBJ       -358
    x[37]     c1        630
    x[37]     c2        514
    x[37]     c3        181
    x[37]     OBJ       -816
    x[38]     c1        760
    x[38]     c2        684
    x[38]     c3        429
    x[38]     OBJ       -768
    x[39]     c1        46
    x[39]     c2        470
    x[39]     c3        208
    x[39]     OBJ       -325
    x[40]     c1        467
    x[40]     c2        386
    x[40]     c3        97
    x[40]     OBJ       -543
    x[41]     c1        872
    x[41]     c2        290
    x[41]     c3        387
    x[41]     OBJ       -292
    x[42]     c1        704
    x[42]     c2        657
    x[42]     c3        620
    x[42]     OBJ       -467
    x[43]     c1        845
    x[43]     c2        705
    x[43]     c3        727
    x[43]     OBJ       -851
    x[44]     c1        255
    x[44]     c2        725
    x[44]     c3        941
    x[44]     OBJ       -612
    x[45]     c1        894
    x[45]     c2        929
    x[45]     c3        655
    x[45]     OBJ       -148
RHS
    rhs       c1        13427
    rhs       c2        10156
    rhs       c3        9866
RANGES
BOUNDS
 BV bounds    x[1]
 BV bounds    x[2]
 BV bounds    x[3]
 BV bounds    x[4]
 BV bounds    x[5]
 BV bounds    x[6]
 BV bounds    x[7]
 BV bounds    x[8]
 BV bounds    x[9]
 BV bounds    x[10]
 BV bounds    x[11]
 BV bounds    x[12]
 BV bounds    x[13]
 BV bounds    x[14]
 BV bounds    x[15]
 BV bounds    x[16]
 BV bounds    x[17]
 BV bounds    x[18]
 BV bounds    x[19]
 BV bounds    x[20]
 BV bounds    x[21]
 BV bounds    x[22]
 BV bounds    x[23]
 BV bounds    x[24]
 BV bounds    x[25]
 BV bounds    x[26]
 BV bounds    x[27]
 BV bounds    x[28]
 BV bounds    x[29]
 BV bounds    x[30]
 BV bounds    x[31]
 BV bounds    x[32]
 BV bounds    x[33]
 BV bounds    x[34]
 BV bounds    x[35]
 BV bounds    x[36]
 BV bounds    x[37]
 BV bounds    x[38]
 BV bounds    x[39]
 BV bounds    x[40]
 BV bounds    x[41]
 BV bounds    x[42]
 BV bounds    x[43]
 BV bounds    x[44]
 BV bounds    x[45]
ENDATA
